NAME          ClpDefau  FREE
ROWS
 N  OBJROW
 L  ZMUNI1_PCT
 L  ZMUNI2_PCT
 L  ZMUNI3_PCT
 L  ZMUNI4_PCT
 L  ZMUNI5_PCT
 L  ZMUNI6_PCT
 L  ZMUNI7_PCT
 L  ZMUNI8_PCT
 L  ZMUNI9_PCT
COLUMNS
    QMUNI1 OBJROW 1.          
    QMUNI1 ZMUNI1_PCT 29110.7177  
    QMUNI1 ZMUNI2_PCT 2097.5113   
    QMUNI1 ZMUNI3_PCT 4542.7323   
    QMUNI1 ZMUNI4_PCT 3366.7564   
    QMUNI1 ZMUNI5_PCT 376.5106    
    QMUNI1 ZMUNI6_PCT 589.3708    
    QMUNI1 ZMUNI7_PCT 2390.6708   
    QMUNI1 ZMUNI8_PCT 2075.9582   
    QMUNI1 ZMUNI9_PCT 1340.1032   
    QMUNI2 OBJROW 1.          
    QMUNI2 ZMUNI1_PCT 1609.6115   
    QMUNI2 ZMUNI2_PCT 33943.367   
    QMUNI2 ZMUNI3_PCT 2411.0794   
    QMUNI2 ZMUNI4_PCT 2562.5229   
    QMUNI2 ZMUNI5_PCT 5.7221000002
    QMUNI2 ZMUNI6_PCT 61.2259     
    QMUNI2 ZMUNI7_PCT 779.7241    
    QMUNI2 ZMUNI8_PCT 940.3229    
    QMUNI2 ZMUNI9_PCT 647.7356    
    QMUNI3 OBJROW 1.          
    QMUNI3 ZMUNI1_PCT 3946.3043   
    QMUNI3 ZMUNI2_PCT 2431.2973   
    QMUNI3 ZMUNI3_PCT 30088.9969  
    QMUNI3 ZMUNI4_PCT 4887.867    
    QMUNI3 ZMUNI5_PCT  -408.1726  
    QMUNI3 ZMUNI6_PCT  -226.7837  
    QMUNI3 ZMUNI7_PCT 1178.1692   
    QMUNI3 ZMUNI8_PCT 1128.5782   
    QMUNI3 ZMUNI9_PCT 352.478     
    QMUNI4 OBJROW 1.          
    QMUNI4 ZMUNI1_PCT 3207.7789   
    QMUNI4 ZMUNI2_PCT 2923.3933   
    QMUNI4 ZMUNI3_PCT 5395.8893   
    QMUNI4 ZMUNI4_PCT 106286.9072 
    QMUNI4 ZMUNI5_PCT  -101.8524  
    QMUNI4 ZMUNI6_PCT 31.4713     
    QMUNI4 ZMUNI7_PCT 1011.0855   
    QMUNI4 ZMUNI8_PCT 944.519     
    QMUNI4 ZMUNI9_PCT 277.1378    
    QMUNI5 OBJROW 1.          
    QMUNI5 ZMUNI1_PCT  -122.4518  
    QMUNI5 ZMUNI2_PCT  -179.4815  
    QMUNI5 ZMUNI3_PCT  -147.438   
    QMUNI5 ZMUNI4_PCT  -158.1192  
    QMUNI5 ZMUNI5_PCT 34243.393   
    QMUNI5 ZMUNI6_PCT 2146.5302   
    QMUNI5 ZMUNI7_PCT  -335.5026  
    QMUNI5 ZMUNI8_PCT  -429.3442  
    QMUNI5 ZMUNI9_PCT  -561.3327  
    QMUNI6 OBJROW 1.          
    QMUNI6 ZMUNI1_PCT 288.0096    
    QMUNI6 ZMUNI2_PCT 41.1988     
    QMUNI6 ZMUNI3_PCT 197.7921    
    QMUNI6 ZMUNI4_PCT 153.923     
    QMUNI6 ZMUNI5_PCT 2593.9942   
    QMUNI6 ZMUNI6_PCT 32207.6798  
    QMUNI6 ZMUNI7_PCT 277.5192    
    QMUNI6 ZMUNI8_PCT  -18.3106   
    QMUNI6 ZMUNI9_PCT  -363.1592  
    QMUNI7 OBJROW 1.          
    QMUNI7 ZMUNI1_PCT 1294.7082   
    QMUNI7 ZMUNI2_PCT 650.5966    
    QMUNI7 ZMUNI3_PCT 1120.1859   
    QMUNI7 ZMUNI4_PCT 835.3233    
    QMUNI7 ZMUNI5_PCT 110.4355    
    QMUNI7 ZMUNI6_PCT 301.1704    
    QMUNI7 ZMUNI7_PCT 29922.8668  
    QMUNI7 ZMUNI8_PCT 1960.5636   
    QMUNI7 ZMUNI9_PCT 132.1793    
    QMUNI8 OBJROW 1.          
    QMUNI8 ZMUNI1_PCT 1078.2241   
    QMUNI8 ZMUNI2_PCT 810.6232    
    QMUNI8 ZMUNI3_PCT 1079.7501   
    QMUNI8 ZMUNI4_PCT 831.5086    
    QMUNI8 ZMUNI5_PCT 89.2639     
    QMUNI8 ZMUNI6_PCT 169.1818    
    QMUNI8 ZMUNI7_PCT 2104.5685   
    QMUNI8 ZMUNI8_PCT 27950.859   
    QMUNI8 ZMUNI9_PCT 638.5803    
    QMUNI9 OBJROW 1.          
    QMUNI9 ZMUNI1_PCT 229.6447    
    QMUNI9 ZMUNI2_PCT 564.5752    
    QMUNI9 ZMUNI3_PCT 344.8487    
    QMUNI9 ZMUNI4_PCT 315.4755    
    QMUNI9 ZMUNI5_PCT  -458.5266  
    QMUNI9 ZMUNI6_PCT  -424.7665  
    QMUNI9 ZMUNI7_PCT 4.7683999998
    QMUNI9 ZMUNI8_PCT 541.4963    
    QMUNI9 ZMUNI9_PCT 26101.8753  
RHS
    RHS ZMUNI1_PCT 0.7315192374
    RHS ZMUNI2_PCT 0.1432817019
    RHS ZMUNI3_PCT 0.1386506636
    RHS ZMUNI4_PCT 0.2934354746
    RHS ZMUNI5_PCT  -0.23274255
    RHS ZMUNI6_PCT 0.0680838674
    RHS ZMUNI7_PCT  -0.20569552
    RHS ZMUNI8_PCT  -0.36359639
    RHS ZMUNI9_PCT  -0.47226875
BOUNDS
 LO BOUND QMUNI1 -0.000855924
 UP BOUND QMUNI1      1.1e+10
 LO BOUND QMUNI2 -0.000604568
 UP BOUND QMUNI2      1.1e+10
 LO BOUND QMUNI3 -0.000661042
 UP BOUND QMUNI3      1.1e+10
 LO BOUND QMUNI4 -0.000251206
 UP BOUND QMUNI4      1.1e+10
 LO BOUND QMUNI5 -0.00045965 
 UP BOUND QMUNI5      1.1e+10
 LO BOUND QMUNI6 -0.000621617
 UP BOUND QMUNI6      1.1e+10
 LO BOUND QMUNI7 -0.000284577
 UP BOUND QMUNI7      1.1e+10
 LO BOUND QMUNI8 -0.00039903 
 UP BOUND QMUNI8      1.1e+10
 LO BOUND QMUNI9 -0.000432479
 UP BOUND QMUNI9      1.1e+10
ENDATA
